p cnf 46 133
a 12 39 0
e 1 2 3 4 5 6 7 8 9 10 11 13 14 15 16 17 18 19 20 21 22 23 24 25 26 27 28 29 30 31 32 33 34 35 36 37 38 40 41 42 43 44 45 46 0
-4 2 0
-4 -3 0
-2 3 4 0
-4 -5 -6 0
4 5 -6 0
-4 5 6 0
4 -5 6 0
6 7 -8 0
-6 -7 -8 0
6 -7 8 0
-6 7 8 0
-10 8 0
-10 -9 0
-8 9 10 0
1 10 -11 0
-1 -10 -11 0
1 -10 11 0
-1 10 11 0
-12 -6 0
-12 -5 0
6 5 12 0
-14 5 0
-14 -13 0
-5 13 14 0
-2 -5 -15 0
2 5 -15 0
-2 5 15 0
2 -5 15 0
-16 14 0
-16 -15 0
-14 15 16 0
17 12 0
17 -16 0
-12 16 -17 0
19 1 0
19 1 0
-1 -19 0
-20 18 0
-20 19 0
-18 -19 20 0
21 17 0
21 -20 0
-17 20 -21 0
-23 13 0
-23 22 0
-13 -22 23 0
-7 19 -24 0
7 -19 -24 0
-7 -19 24 0
7 19 24 0
-25 2 0
-25 24 0
-2 -24 25 0
-26 -23 0
-26 25 0
23 -25 26 0
2 -6 -27 0
-2 6 -27 0
2 6 27 0
-2 -6 27 0
-26 -27 -28 0
26 27 -28 0
-26 27 28 0
26 -27 28 0
14 -19 -29 0
-14 19 -29 0
14 19 29 0
-14 -19 29 0
-30 29 0
-30 6 0
-29 -6 30 0
31 -30 0
31 4 0
30 -4 -31 0
-29 13 -32 0
29 -13 -32 0
-29 -13 32 0
29 13 32 0
31 32 -33 0
-31 -32 -33 0
31 -32 33 0
-31 32 33 0
-34 -24 0
-34 -9 0
24 9 34 0
-36 35 0
-36 -29 0
-35 29 36 0
-29 36 -37 0
29 -36 -37 0
-29 -36 37 0
29 36 37 0
38 -34 0
38 -37 0
34 37 -38 0
39 33 0
39 38 0
-33 -38 -39 0
40 28 0
40 39 0
-28 -39 -40 0
-41 -21 0
-41 40 0
21 -40 41 0
42 11 0
42 -41 0
-11 41 -42 0
43 -19 0
43 5 0
19 -5 -43 0
44 -16 0
44 7 0
16 -7 -44 0
-43 44 -45 0
43 -44 -45 0
-43 -44 45 0
43 44 45 0
-46 -42 0
-46 45 0
42 -45 46 0
28 40 46 -33 0
-42 23 44 -5 -11 -31 7 0
-26 -23 3 0
29 44 34 0
-37 20 -5 -31 -24 0
-43 -4 -16 0
-19 -9 -20 -29 -44 41 -15 0
3 -26 15 22 1 0
-44 -4 18 -20 28 34 41 0
-17 -33 -43 0
8 -35 -7 -17 28 0
43 31 44 0
46 0
